p tdp 99 98
52 71
25 16
58 32
74 84
13 50
3 39
94 17
74 94
46 75
72 56
26 81
89 31
7 10
69 99
73 53
55 87
83 47
40 73
4 86
34 70
7 12
14 13
48 44
18 88
62 72
11 93
86 30
40 22
50 77
64 82
85 58
59 46
42 20
80 55
61 41
65 48
35 32
33 27
18 5
94 61
13 24
76 77
71 37
66 42
28 92
63 38
32 42
53 43
49 67
6 70
64 60
15 71
78 16
9 54
93 73
21 95
80 1
21 90
25 75
91 13
97 62
72 45
99 27
98 10
54 6
8 15
23 57
23 3
51 8
48 88
83 78
9 27
79 10
89 52
96 72
67 19
29 43
25 17
67 69
64 95
6 14
92 36
8 68
44 53
2 39
23 26
64 16
62 80
86 32
56 23
7 48
37 38
56 27
84 43
40 15
92 70
42 26
97 98
